c File: flat50_3_0.col
c
c SOURCE: Joseph Culberson (joe@cs.ualberta.ca)
c DESCRIPTION: Quasi-random coloring problem
c              generated with flatness = 0
c                             probability = 0.139
c                             known coloring = 3
c                             random seed = 1599
c              Creation Date:  Tue Jun  9 12:13:16 1998
c Maximum degree = 8 Minimum degree = 1
c p edge 50 115
c cnf created by edge2cnf
p cnf 150 545
-1 -2 0
-1 -3 0
-2 -3 0
1 2 3 0
-4 -5 0
-4 -6 0
-5 -6 0
4 5 6 0
-7 -8 0
-7 -9 0
-8 -9 0
7 8 9 0
-10 -11 0
-10 -12 0
-11 -12 0
10 11 12 0
-13 -14 0
-13 -15 0
-14 -15 0
13 14 15 0
-16 -17 0
-16 -18 0
-17 -18 0
16 17 18 0
-19 -20 0
-19 -21 0
-20 -21 0
19 20 21 0
-22 -23 0
-22 -24 0
-23 -24 0
22 23 24 0
-25 -26 0
-25 -27 0
-26 -27 0
25 26 27 0
-28 -29 0
-28 -30 0
-29 -30 0
28 29 30 0
-31 -32 0
-31 -33 0
-32 -33 0
31 32 33 0
-34 -35 0
-34 -36 0
-35 -36 0
34 35 36 0
-37 -38 0
-37 -39 0
-38 -39 0
37 38 39 0
-40 -41 0
-40 -42 0
-41 -42 0
40 41 42 0
-43 -44 0
-43 -45 0
-44 -45 0
43 44 45 0
-46 -47 0
-46 -48 0
-47 -48 0
46 47 48 0
-49 -50 0
-49 -51 0
-50 -51 0
49 50 51 0
-52 -53 0
-52 -54 0
-53 -54 0
52 53 54 0
-55 -56 0
-55 -57 0
-56 -57 0
55 56 57 0
-58 -59 0
-58 -60 0
-59 -60 0
58 59 60 0
-61 -62 0
-61 -63 0
-62 -63 0
61 62 63 0
-64 -65 0
-64 -66 0
-65 -66 0
64 65 66 0
-67 -68 0
-67 -69 0
-68 -69 0
67 68 69 0
-70 -71 0
-70 -72 0
-71 -72 0
70 71 72 0
-73 -74 0
-73 -75 0
-74 -75 0
73 74 75 0
-76 -77 0
-76 -78 0
-77 -78 0
76 77 78 0
-79 -80 0
-79 -81 0
-80 -81 0
79 80 81 0
-82 -83 0
-82 -84 0
-83 -84 0
82 83 84 0
-85 -86 0
-85 -87 0
-86 -87 0
85 86 87 0
-88 -89 0
-88 -90 0
-89 -90 0
88 89 90 0
-91 -92 0
-91 -93 0
-92 -93 0
91 92 93 0
-94 -95 0
-94 -96 0
-95 -96 0
94 95 96 0
-97 -98 0
-97 -99 0
-98 -99 0
97 98 99 0
-100 -101 0
-100 -102 0
-101 -102 0
100 101 102 0
-103 -104 0
-103 -105 0
-104 -105 0
103 104 105 0
-106 -107 0
-106 -108 0
-107 -108 0
106 107 108 0
-109 -110 0
-109 -111 0
-110 -111 0
109 110 111 0
-112 -113 0
-112 -114 0
-113 -114 0
112 113 114 0
-115 -116 0
-115 -117 0
-116 -117 0
115 116 117 0
-118 -119 0
-118 -120 0
-119 -120 0
118 119 120 0
-121 -122 0
-121 -123 0
-122 -123 0
121 122 123 0
-124 -125 0
-124 -126 0
-125 -126 0
124 125 126 0
-127 -128 0
-127 -129 0
-128 -129 0
127 128 129 0
-130 -131 0
-130 -132 0
-131 -132 0
130 131 132 0
-133 -134 0
-133 -135 0
-134 -135 0
133 134 135 0
-136 -137 0
-136 -138 0
-137 -138 0
136 137 138 0
-139 -140 0
-139 -141 0
-140 -141 0
139 140 141 0
-142 -143 0
-142 -144 0
-143 -144 0
142 143 144 0
-145 -146 0
-145 -147 0
-146 -147 0
145 146 147 0
-148 -149 0
-148 -150 0
-149 -150 0
148 149 150 0
-55 -1 0
-56 -2 0
-57 -3 0
-61 -1 0
-62 -2 0
-63 -3 0
-64 -1 0
-65 -2 0
-66 -3 0
-73 -1 0
-74 -2 0
-75 -3 0
-118 -1 0
-119 -2 0
-120 -3 0
-139 -1 0
-140 -2 0
-141 -3 0
-58 -4 0
-59 -5 0
-60 -6 0
-85 -4 0
-86 -5 0
-87 -6 0
-100 -4 0
-101 -5 0
-102 -6 0
-106 -4 0
-107 -5 0
-108 -6 0
-112 -4 0
-113 -5 0
-114 -6 0
-115 -7 0
-116 -8 0
-117 -9 0
-133 -7 0
-134 -8 0
-135 -9 0
-142 -7 0
-143 -8 0
-144 -9 0
-145 -7 0
-146 -8 0
-147 -9 0
-64 -10 0
-65 -11 0
-66 -12 0
-70 -10 0
-71 -11 0
-72 -12 0
-88 -10 0
-89 -11 0
-90 -12 0
-109 -10 0
-110 -11 0
-111 -12 0
-124 -10 0
-125 -11 0
-126 -12 0
-139 -10 0
-140 -11 0
-141 -12 0
-79 -13 0
-80 -14 0
-81 -15 0
-82 -13 0
-83 -14 0
-84 -15 0
-91 -13 0
-92 -14 0
-93 -15 0
-100 -13 0
-101 -14 0
-102 -15 0
-106 -13 0
-107 -14 0
-108 -15 0
-121 -13 0
-122 -14 0
-123 -15 0
-139 -13 0
-140 -14 0
-141 -15 0
-142 -13 0
-143 -14 0
-144 -15 0
-103 -16 0
-104 -17 0
-105 -18 0
-112 -16 0
-113 -17 0
-114 -18 0
-127 -16 0
-128 -17 0
-129 -18 0
-70 -19 0
-71 -20 0
-72 -21 0
-91 -19 0
-92 -20 0
-93 -21 0
-124 -19 0
-125 -20 0
-126 -21 0
-136 -19 0
-137 -20 0
-138 -21 0
-139 -19 0
-140 -20 0
-141 -21 0
-148 -19 0
-149 -20 0
-150 -21 0
-73 -22 0
-74 -23 0
-75 -24 0
-91 -22 0
-92 -23 0
-93 -24 0
-148 -22 0
-149 -23 0
-150 -24 0
-52 -25 0
-53 -26 0
-54 -27 0
-148 -25 0
-149 -26 0
-150 -27 0
-64 -28 0
-65 -29 0
-66 -30 0
-97 -28 0
-98 -29 0
-99 -30 0
-109 -28 0
-110 -29 0
-111 -30 0
-133 -28 0
-134 -29 0
-135 -30 0
-58 -31 0
-59 -32 0
-60 -33 0
-88 -31 0
-89 -32 0
-90 -33 0
-97 -31 0
-98 -32 0
-99 -33 0
-106 -31 0
-107 -32 0
-108 -33 0
-130 -31 0
-131 -32 0
-132 -33 0
-61 -34 0
-62 -35 0
-63 -36 0
-82 -34 0
-83 -35 0
-84 -36 0
-85 -34 0
-86 -35 0
-87 -36 0
-91 -34 0
-92 -35 0
-93 -36 0
-103 -34 0
-104 -35 0
-105 -36 0
-115 -34 0
-116 -35 0
-117 -36 0
-130 -34 0
-131 -35 0
-132 -36 0
-142 -34 0
-143 -35 0
-144 -36 0
-97 -37 0
-98 -38 0
-99 -39 0
-121 -37 0
-122 -38 0
-123 -39 0
-88 -40 0
-89 -41 0
-90 -42 0
-94 -40 0
-95 -41 0
-96 -42 0
-145 -40 0
-146 -41 0
-147 -42 0
-148 -40 0
-149 -41 0
-150 -42 0
-67 -43 0
-68 -44 0
-69 -45 0
-70 -43 0
-71 -44 0
-72 -45 0
-76 -43 0
-77 -44 0
-78 -45 0
-94 -43 0
-95 -44 0
-96 -45 0
-124 -43 0
-125 -44 0
-126 -45 0
-67 -46 0
-68 -47 0
-69 -48 0
-82 -46 0
-83 -47 0
-84 -48 0
-97 -46 0
-98 -47 0
-99 -48 0
-118 -46 0
-119 -47 0
-120 -48 0
-130 -46 0
-131 -47 0
-132 -48 0
-52 -49 0
-53 -50 0
-54 -51 0
-85 -49 0
-86 -50 0
-87 -51 0
-103 -55 0
-104 -56 0
-105 -57 0
-115 -55 0
-116 -56 0
-117 -57 0
-124 -55 0
-125 -56 0
-126 -57 0
-106 -58 0
-107 -59 0
-108 -60 0
-127 -58 0
-128 -59 0
-129 -60 0
-142 -58 0
-143 -59 0
-144 -60 0
-115 -61 0
-116 -62 0
-117 -63 0
-118 -61 0
-119 -62 0
-120 -63 0
-130 -61 0
-131 -62 0
-132 -63 0
-112 -64 0
-113 -65 0
-114 -66 0
-124 -64 0
-125 -65 0
-126 -66 0
-127 -64 0
-128 -65 0
-129 -66 0
-133 -64 0
-134 -65 0
-135 -66 0
-109 -67 0
-110 -68 0
-111 -69 0
-118 -70 0
-119 -71 0
-120 -72 0
-133 -70 0
-134 -71 0
-135 -72 0
-145 -70 0
-146 -71 0
-147 -72 0
-112 -73 0
-113 -74 0
-114 -75 0
-115 -73 0
-116 -74 0
-117 -75 0
-127 -73 0
-128 -74 0
-129 -75 0
-109 -76 0
-110 -77 0
-111 -78 0
-130 -76 0
-131 -77 0
-132 -78 0
-133 -76 0
-134 -77 0
-135 -78 0
-145 -76 0
-146 -77 0
-147 -78 0
-118 -79 0
-119 -80 0
-120 -81 0
-127 -79 0
-128 -80 0
-129 -81 0
-148 -88 0
-149 -89 0
-150 -90 0
-103 -91 0
-104 -92 0
-105 -93 0
-109 -91 0
-110 -92 0
-111 -93 0
-142 -91 0
-143 -92 0
-144 -93 0
-145 -91 0
-146 -92 0
-147 -93 0
-106 -94 0
-107 -95 0
-108 -96 0
-115 -94 0
-116 -95 0
-117 -96 0
-121 -94 0
-122 -95 0
-123 -96 0
-130 -94 0
-131 -95 0
-132 -96 0
-103 -97 0
-104 -98 0
-105 -99 0
-109 -100 0
-110 -101 0
-111 -102 0
